50
150 150
1 105 804
2 104 309
3 102 110
4 100 406
5 96 227
6 94 520
7 88 736
8 87 764
9 87 67
10 87 800
11 85 98
12 85 899
13 84 75
14 83 537
15 82 501
16 82 804
17 79 720
18 78 356
19 78 342
20 74 98
21 71 460
22 69 126
23 68 618
24 68 598
25 66 13
26 64 42
27 63 597
28 63 372
29 62 865
30 61 370
31 58 276
32 57 953
33 57 984
34 56 560
35 55 278
36 54 555
37 53 361
38 52 877
39 51 310
40 48 180
41 47 585
42 42 393
43 39 447
44 38 561
45 38 829
46 36 775
47 34 396
48 33 552
49 32 795
50 31 30
